unsat
(:SPACER-conj                         7
 :SPACER-inductive-gen                253
 :SPACER-inductive-gen-weaken-fail    647
 :SPACER-inductive-gen-weaken-success 6
 :SPACER-inductive-level              9
 :SPACER-max-depth                    14
 :SPACER-max-query-lvl                14
 :SPACER-non-local-gen                39
 :SPACER-num-active-lemmas            62
 :SPACER-num-ctp-blocked              173
 :SPACER-num-invariants               135
 :SPACER-num-is_invariant             1254
 :SPACER-num-lemma-jumped             33
 :SPACER-num-lemmas                   287
 :SPACER-num-pobs                     155
 :SPACER-num-propagations             817
 :SPACER-num-queries                  235
 :SPACER-num-reach-queries            15
 :SPACER-num-reuse-reach-facts        13
 :SPACER-subsume-failed               7
 :SPACER-subsume-pob                  27
 :SPACER-subsume-success              55
 :added-eqs                           217568
 :arith-assert-diseq                  89712
 :arith-assert-lower                  335178
 :arith-assert-upper                  334190
 :arith-bound-prop                    16746
 :arith-branch-var                    6
 :arith-conflicts                     948
 :arith-eq-adapter                    20692
 :arith-fixed-eqs                     66580
 :arith-gcd-conflicts                 18
 :arith-gcd-tests                     118
 :arith-ineq-splits                   6
 :arith-num-rows                      262
 :arith-offset-eqs                    33448
 :arith-patches                       8
 :arith-patches_succ                  2
 :arith-pivots                        13854
 :arith-row-summations                293634
 :arith-tableau-max-columns           382
 :arith-tableau-max-rows              262
 :conflicts                           8302
 :decisions                           1307206
 :del-clause                          18964
 :final-checks                        2326
 :iuc_solver.num_proxies              1401
 :max-memory                          98.96
 :memory                              84.77
 :minimized-lits                      6006
 :mk-bool-var                         40792
 :mk-clause                           44314
 :num-allocs                          15806210902.00
 :num-checks                          6804
 :pool_solver.checks                  3402
 :pool_solver.checks.sat              687
 :pool_solver.checks.undef            464
 :propagations                        2152596
 :rlimit-count                        15504145
 :time                                7.72
 :time.iuc_solver.get_iuc             0.94
 :time.iuc_solver.get_iuc.hyp_reduce1 0.37
 :time.iuc_solver.get_iuc.hyp_reduce2 0.52
 :time.iuc_solver.get_iuc.learn_core  0.16
 :time.pool_solver.proof              0.17
 :time.pool_solver.smt.total          4.70
 :time.pool_solver.smt.total.sat      1.21
 :time.pool_solver.smt.total.undef    1.55
 :time.spacer.ctp                     0.06
 :time.spacer.init_rules              0.00
 :time.spacer.mbp                     0.06
 :time.spacer.solve                   7.62
 :time.spacer.solve.propagate         1.31
 :time.spacer.solve.reach             6.31
 :time.spacer.solve.reach.children    0.21
 :time.spacer.solve.reach.cluster     0.90
 :time.spacer.solve.reach.gen.global  0.33
 :time.spacer.solve.reach.gen.ind     2.39
 :time.spacer.solve.reach.is-reach    0.02)
(:max-memory   98.96
 :memory       84.77
 :num-allocs   15806210902.00
 :rlimit-count 15504145
 :time         7.72
 :total-time   7.73)
